route
34
24
8
17
56
75
64
61
71
52
4
10
27
54
42
36
78
68
48
23
58
7
39
73
62
16
51
40
20
63
6
69
76
31
77
35
18
3
9
74
12
70
28
55
72
65
49
21
46
43
5
1
30
37
26
0
22
53
25
13
38
57
44
15
60
47
67
41
19
59
50
66
45
33
14
2
32
11
29
